************************************************************************
file with basedata            : mm19_.bas
initial value random generator: 822750424
************************************************************************
projects                      :  1
jobs (incl. supersource/sink ):  12
horizon                       :  88
RESOURCES
  - renewable                 :  2   R
  - nonrenewable              :  2   N
  - doubly constrained        :  0   D
************************************************************************
PROJECT INFORMATION:
pronr.  #jobs rel.date duedate tardcost  MPM-Time
    1     10      0       13        2       13
************************************************************************
PRECEDENCE RELATIONS:
jobnr.    #modes  #successors   successors
   1        1          3           2   3   4
   2        3          3           5   6  11
   3        3          1           9
   4        3          2          10  11
   5        3          3           7   8  10
   6        3          1          10
   7        3          1           9
   8        3          1           9
   9        3          1          12
  10        3          1          12
  11        3          1          12
  12        1          0        
************************************************************************
REQUESTS/DURATIONS:
jobnr. mode duration  R 1  R 2  N 1  N 2
------------------------------------------------------------------------
  1      1     0       0    0    0    0
  2      1     5       0    8    5    0
         2     7       0    8    0    4
         3    10       0    3    4    0
  3      1     4       1    0    0    5
         2     6       1    0    5    0
         3     9       0    9    0    4
  4      1     4       0    2    0    2
         2     7       6    0    0    1
         3    10       5    0    0    1
  5      1     3       3    0    0    6
         2     3       1    0    0    7
         3     5       0    2    6    0
  6      1     2       4    0    0    9
         2     6       0    1    0    8
         3    10       2    0    0    8
  7      1     3       0    5    6    0
         2     5       6    0    0   10
         3     9       0    3    5    0
  8      1     4      10    0    0    6
         2     8       8    0    0    4
         3     9       3    0    0    1
  9      1     1       2    0    0   10
         2     8       0    4    0    8
         3    10       2    0    3    0
 10      1     3       5    0    0    5
         2     6       4    0    9    0
         3     9       4    0    8    0
 11      1     1       2    0    0    6
         2     7       0    3    4    0
         3     7       1    0    0    4
 12      1     0       0    0    0    0
************************************************************************
RESOURCEAVAILABILITIES:
  R 1  R 2  N 1  N 2
   16   14   27   48
************************************************************************
MAXIMAL LAGS:
from  to  type  delay
    1   12   ES      0
    1    2   ES      0
    2   12   ES      0
    1    3   ES      0
    3   12   ES      0
    1    4   ES      0
    4   12   ES      0
    1    5   ES      0
    5   12   ES      0
    1    6   ES      0
    6   12   ES      0
    1    7   ES      0
    7   12   ES      0
    1    8   ES      0
    8   12   ES      0
    1    9   ES      0
    9   12   ES      0
    1   10   ES      0
   10   12   ES      0
    1   11   ES      0
   11   12   ES      0
    1   12   ES      0
    2    5   SS      2
    2    5   SE     -1
    2    5   ES     11
    2    5   EE     -6
    2    6   SS      8
    2    6   SE     11
    2    6   ES     -8
    2    6   EE      1
    2   11   SS      7
    2   11   SE      9
    2   11   ES      2
    2   11   EE     -6
    3    9   SS    -10
    3    9   SE     -9
    3    9   ES     -8
    3    9   EE     12
    4   10   SS     -9
    4   10   SE      6
    4   10   ES     11
    4   10   EE      0
    4   11   SS     -1
    4   11   SE      1
    4   11   ES     -2
    4   11   EE     -8
    5    7   SS     -5
    5    7   SE     -4
    5    7   ES      8
    5    7   EE    -10
    5    8   SS     -5
    5    8   SE      5
    5    8   ES      7
    5    8   EE      7
    5   10   SS     11
    5   10   SE      7
    5   10   ES     -3
    5   10   EE     12
    6   10   SS     10
    6   10   SE    -12
    6   10   ES      9
    6   10   EE     -3
    7    9   SS     -6
    7    9   SE      4
    7    9   ES      7
    7    9   EE      4
    8    9   SS     -6
    8    9   SE     11
    9    8   SE      0
    8    9   ES      0
    8    9   EE     -3
************************************************************************
